50
19906

483 232
559 492
556 332
656 994
404 719
294 692
835 191
450 444
784 440
900 336
180 288
357 95
883 482
794 544
348 244
37 472
946 111
984 503
737 463
797 52
93 393
951 407
668 748
483 578
385 133
685 660
6 72
336 264
379 578
173 201
193 604
796 425
491 467
429 523
151 78
149 98
299 984
204 54
376 21
669 21
727 296
272 172
304 495
914 62
486 33
126 940
39 977
240 956
857 324
465 828
